
param NumCities 16;

param CR :=
1 5
2 2
3 4
4 4
5 4
6 2
7 5
8 5
9 8
10 9
11 2
12 2
13 10
14 5
15 10
16 9;


param CX:=
1 -80
2 -87
3 -81
4 -59
5 -25
6 -33
7 -12
8 -6
9 0
10 10
11 20
12 30
13 41
14 55
15 69
16 80;

param CY:=
1 30
2 -15
3 -35
4 25
5 -30
6 -15
7 1
8 43
9 -24
10 10
11 -15
12 25
13 -31
14 15
15 -10
16 28 ;

param box :=
  1 -100
  2 100
  3 -50
  4 50;

var AX :=
1 1
2 -1;

var AY :=
1 -1
2 1;

var AR :=
1 1
2 1;
